c Output_time 26.03.2020 18:13:16_+0100 1585242796538333098
c ** Program information **
c program_name                          "QBRG_debug"
c version                               "0.3.20"
c date                                  "25.3.2020"
c gid_id                                "673970833836058123f633335630c185360d632e"
c author                                "Oliver Kullmann"
c url                                   "https://github.com/OKullmann/oklibrary/blob/master/Satisfiability/Transformers/Generators/Random/QBRG.cpp"
c ** Machine information **
c machine_name                          "chyna-Lenovo-G50-70"
c bogomips                              3791.08
c ** Compilation information **
c compiler_version                      "g++ 7.5.0"
c compilation_date                      "Mar_26_2020 11:16:30"
c compilation_options                   "--std=c++17 -pedantic -fmax-errors=5 -Wall -Wextra -g -D_GLIBCXX_DEBUG"
c NDEBUG                                0
c OPTIMIZE                              0
c ** Parameters **
c command-line                          "./QBRG_debug" "e40 a40 40" "349*1,1|2-2,1|3-3,1" "" "1,t" ""
c output                                "QuBlRaGe_120_349_1585242796537937804.qdimacs"
c options                               "filtered,renamed"
c num_quantifier_blocks                 3
c  quantifier_blocks                    1:e1-40 2:a41-80 3:e81-120
c num_clause-blocks                     1
c  clause-blocks                        349 * {1-40,1,1/2} | {41-80,1,1/2} | {81-120,1,1/2}
c num_e-seeds                           30+2=32
c  e-seeds                              1 0 1 0 4 120 2 40 1 40 0 40 1 349 3 1 1 1 1 2 2 2 1 1 2 3 3 1 1 2 1 1585242796537937177
p cnf 120 349
e 1 2 3 4 5 6 7 8 9 10 11 12 13 14 15 16 17 18 19 20 21 22 23 24 25 26 27 28 29 30 31 32 33 34 35 36 37 38 39 40 0
a 41 42 43 44 45 46 47 48 49 50 51 52 53 54 55 56 57 58 59 60 61 62 63 64 65 66 67 68 69 70 71 72 73 74 75 76 77 78 79 80 0
e 81 82 83 84 85 86 87 88 89 90 91 92 93 94 95 96 97 98 99 100 101 102 103 104 105 106 107 108 109 110 111 112 113 114 115 116 117 118 119 120 0
-3 -41 -81 0
10 44 -81 0
11 48 -81 0
23 50 -81 0
3 55 -81 0
-34 -58 -81 0
9 -52 81 0
-22 -61 81 0
-26 69 81 0
15 -78 81 0
-38 -44 -82 0
30 -50 -82 0
-26 53 -82 0
18 -78 -82 0
19 42 82 0
5 -51 82 0
-10 -66 82 0
-34 74 82 0
-22 75 82 0
-30 75 82 0
-15 77 82 0
16 -42 -83 0
-38 -52 -83 0
-8 -62 -83 0
-40 62 -83 0
10 -75 -83 0
4 50 83 0
39 63 83 0
5 74 83 0
-25 77 83 0
-23 -41 -84 0
-3 -48 -84 0
-1 -55 -84 0
-26 -59 -84 0
-2 -62 -84 0
-10 44 84 0
23 -45 84 0
21 -56 84 0
21 71 -85 0
-11 -75 -85 0
25 47 85 0
19 50 85 0
33 66 85 0
30 -47 -86 0
-1 -55 -86 0
24 -56 -86 0
-37 62 -86 0
10 68 -86 0
-2 72 -86 0
-21 -77 -86 0
40 -79 -86 0
-15 -46 86 0
-38 -57 86 0
-6 61 86 0
-11 64 86 0
-6 -41 -87 0
39 -42 -87 0
-9 43 -87 0
-27 69 -87 0
40 79 -87 0
7 80 -87 0
30 -41 87 0
35 -50 87 0
-33 59 87 0
24 71 87 0
-40 -76 87 0
-12 77 87 0
-37 -42 -88 0
-30 -58 -88 0
2 63 -88 0
-1 67 -88 0
-37 -69 -88 0
3 64 88 0
38 -66 88 0
20 -51 -89 0
-18 -67 -89 0
17 70 -89 0
-4 76 -89 0
-40 47 89 0
12 -62 89 0
-11 -66 89 0
30 -69 89 0
10 70 89 0
24 70 89 0
25 -79 89 0
13 46 -90 0
-30 59 -90 0
20 -62 -90 0
16 -72 -90 0
28 47 90 0
-31 -48 90 0
-12 56 90 0
7 -47 -91 0
-23 -47 -91 0
-10 -48 -91 0
-8 -49 -91 0
-20 50 -91 0
-23 51 -91 0
25 62 -91 0
-20 66 -91 0
-40 70 -91 0
-29 -42 91 0
32 -44 91 0
-5 48 91 0
11 -50 91 0
30 -66 91 0
6 70 91 0
-20 -42 -92 0
25 -44 -92 0
20 50 -92 0
-29 70 -92 0
-28 77 -92 0
31 -42 92 0
-4 -50 92 0
6 59 92 0
-1 68 -93 0
-37 -70 -93 0
22 -41 93 0
28 43 93 0
27 45 93 0
-15 69 93 0
-24 71 93 0
-29 79 93 0
4 -42 -94 0
-40 71 -94 0
-24 -72 -94 0
-17 50 94 0
15 -67 94 0
20 45 -95 0
-1 55 -95 0
-21 -59 -95 0
26 61 -95 0
-36 62 -95 0
5 68 -95 0
-39 69 -95 0
-8 -57 -96 0
27 -62 -96 0
7 65 -96 0
40 -51 96 0
-4 62 96 0
-16 -45 -97 0
28 50 -97 0
36 53 -97 0
8 -70 -97 0
18 64 97 0
38 75 97 0
37 76 97 0
-23 -48 -98 0
-4 -80 -98 0
36 80 -98 0
40 -51 98 0
-20 -55 98 0
-15 -58 98 0
2 -61 98 0
-36 -66 98 0
15 72 98 0
26 -73 98 0
-7 77 98 0
20 -46 -99 0
35 -47 -99 0
-8 57 -99 0
18 49 99 0
4 57 99 0
35 -59 99 0
-5 -61 99 0
-25 66 99 0
-30 -62 -100 0
-29 67 -100 0
13 71 -100 0
-30 74 -100 0
-30 77 -100 0
36 -41 100 0
23 44 100 0
-16 -47 100 0
29 55 100 0
-27 57 100 0
-6 62 100 0
-16 76 100 0
20 -54 -101 0
33 -62 -101 0
-5 -63 -101 0
-35 -72 -101 0
14 -74 -101 0
-23 -74 -101 0
-8 -76 -101 0
30 -79 -101 0
33 -59 101 0
33 -61 101 0
-9 61 101 0
28 41 -102 0
-18 72 -102 0
-37 41 102 0
-7 51 102 0
-24 51 102 0
24 -60 102 0
35 64 102 0
12 77 102 0
-33 -41 -103 0
2 58 -103 0
-33 72 -103 0
22 -80 -103 0
20 43 103 0
33 59 103 0
-37 67 103 0
-39 76 103 0
-13 -41 -104 0
21 73 -104 0
22 -77 -104 0
12 50 104 0
-26 64 104 0
18 -75 104 0
15 -56 -105 0
2 -68 -105 0
38 72 -105 0
-29 -49 105 0
-1 -64 105 0
-15 70 105 0
-6 78 105 0
-31 -68 -106 0
-30 -73 -106 0
-5 75 -106 0
-14 -48 106 0
-31 -49 106 0
-35 -49 106 0
-4 55 106 0
11 56 106 0
36 -58 106 0
-8 -75 106 0
19 -41 -107 0
36 41 -107 0
17 -42 -107 0
3 -45 -107 0
31 52 -107 0
9 76 -107 0
-29 -67 107 0
9 -79 107 0
-16 -45 -108 0
-9 -49 -108 0
-8 -63 -108 0
18 63 -108 0
-5 -53 108 0
-23 -63 108 0
-24 -63 108 0
-22 -44 -109 0
39 49 -109 0
-33 -51 -109 0
-11 -62 -109 0
5 67 -109 0
14 43 109 0
-27 -52 109 0
-5 -69 109 0
14 -69 109 0
-34 80 109 0
40 49 -110 0
6 -58 -110 0
-21 66 -110 0
-33 -68 -110 0
-19 -74 -110 0
-18 62 110 0
19 79 110 0
-17 43 -111 0
17 46 -111 0
11 56 -111 0
35 58 -111 0
-12 -62 -111 0
31 62 -111 0
5 69 -111 0
15 -72 -111 0
29 77 -111 0
39 -49 111 0
-3 53 111 0
-17 -66 111 0
22 75 111 0
18 -76 -112 0
26 57 112 0
28 -59 112 0
-11 -63 112 0
-6 41 -113 0
34 42 -113 0
32 -43 -113 0
-6 -47 -113 0
-27 53 -113 0
-39 53 -113 0
26 -70 -113 0
30 -72 -113 0
4 74 -113 0
28 80 -113 0
16 42 113 0
-30 68 113 0
-13 73 113 0
-24 -76 113 0
40 -50 -114 0
30 77 -114 0
-4 -45 114 0
-28 47 114 0
-25 -42 -115 0
29 -45 -115 0
-16 -49 -115 0
-34 62 -115 0
-20 -71 -115 0
17 71 -115 0
4 73 -115 0
-15 76 -115 0
6 44 115 0
-9 53 115 0
-31 54 115 0
24 -58 115 0
-13 65 115 0
14 -76 115 0
37 -44 -116 0
8 -50 -116 0
-19 65 -116 0
-1 76 -116 0
19 -61 116 0
21 74 116 0
-1 43 -117 0
7 76 -117 0
-26 80 -117 0
5 -43 117 0
-5 56 117 0
32 -57 117 0
28 -62 117 0
23 71 117 0
-27 72 117 0
34 73 117 0
34 47 -118 0
20 -52 -118 0
-40 68 118 0
23 76 118 0
-30 78 118 0
-12 -45 -119 0
-26 -51 -119 0
-29 -51 -119 0
34 51 -119 0
18 -56 -119 0
-26 -57 -119 0
-8 -61 -119 0
-40 63 -119 0
-31 69 -119 0
-29 -70 -119 0
-15 -80 -119 0
17 41 119 0
-10 44 119 0
36 66 119 0
17 71 119 0
38 51 -120 0
-21 -54 -120 0
30 67 -120 0
-38 -77 120 0
